0 29 38 87 149 
29 72 149 218 264 
147 238 277 367 379 
238 319 390 399 484 
484 498 520 546 567 
498 582 639 687 734 
634 734 795 827 859 
827 858 904 936 955 
936 1012 1088 1173 1213 
1213 1298 1359 1423 1470 
1298 1470 1506 1560 1616 
1637 1727 1738 1766 1812 
1738 1823 1897 1907 1996 
1897 1992 2091 2143 2241 
2091 2143 2284 2353 2402 
2204 2206 2455 2527 2592 
2301 2617 2630 2651 2740 
2338 2651 2795 2883 2931 
2725 2931 2982 3010 3099 
2993 3006 3013 3099 3173 
